20 3
7 7 8
0 0 0 0 10 2 3 5 6 7 12 13 14 16 19
10 1 2 2 1 11
16 3 2 2 2 4 9
13 1 2 2 2 15 18
16 3 2 2 1 20
11 1 2 2 1 20
15 3 2 2 1 8
14 2 2 2 2 11 10
16 2 2 2 1 15
13 2 2 2 1 20
12 2 2 2 1 17
13 1 2 2 1 20
18 3 2 2 1 20
11 3 2 2 1 20
12 2 2 2 1 20
16 3 2 2 1 20
17 2 2 2 1 20
19 2 2 2 1 20
18 2 2 2 1 20
0 0 0 0 0
